c This Formular is generated by mcnf
c
c    horn? no 
c    forced? no 
c    mixed sat? no 
c    clause length = 3 
c
c this was reduced and found the idea that, actually,
c we still need to update the watched literals if one of
c them is falsified even if the clause is already sat.
c interesting?
p cnf 20  91 
-5 6 3 0
-12 3 -4 0
20 19 -16 0
6 -1 11 0
5 12 13 0
-6 -20 13 0